p cnf 30 45
28 14 2 0
8 -14 26 0
9 -7 5 0
-16 -28 -30 0
25 -9 19 0
26 9 -29 0
-28 -19 -9 0
-17 10 23 0
-18 -3 -14 0
-5 21 4 0
-3 -12 -26 0
-9 -15 -14 0
14 28 13 0
24 -27 -17 0
13 -6 -19 0
28 -18 19 0
-1 -30 28 0
-24 12 21 0
12 22 -1 0
-21 12 -30 0
16 -30 -18 0
12 -13 14 0
15 -11 2 0
12 -27 -25 0
-25 26 17 0
-6 -14 -13 0
21 -12 -28 0
15 12 25 0
7 -4 -16 0
28 11 12 0
-20 29 -24 0
-19 20 -27 0
-10 26 11 0
-11 8 21 0
14 13 10 0
-20 -13 4 0
-8 6 13 0
26 -3 4 0
-8 -2 15 0
-7 -11 -14 0
-13 2 -12 0
-10 -11 13 0
8 26 22 0
16 -19 -21 0
7 26 15 0
